(set-info :original "2-inc-max/inc-max-00-1.bc")
(set-info :authors "SeaHorn v.0.1.0-rc3")
(declare-rel verifier.error (Bool Bool Bool ))
(declare-rel main@entry (Int ))
(declare-rel main@entry.split ())
(declare-var main@%_0_0 (Array Int Int) )
(declare-var main@%x.i_0 Int )
(declare-var main@%y.i_0 Int )
(declare-var main@%_1_0 Int )
(declare-var @nd_0 Int )
(declare-var main@%_2_0 Int )
(declare-var main@%_3_0 (Array Int Int) )
(declare-var main@%_4_0 Int )
(declare-var main@%_5_0 Int )
(declare-var main@%_6_0 (Array Int Int) )
(declare-var main@%_7_0 Bool )
(declare-var main@%x.y.i_0 Int )
(declare-var main@%_8_0 Int )
(declare-var main@%_9_0 Int )
(declare-var main@%_10_0 (Array Int Int) )
(declare-var main@%_11_0 Int )
(declare-var main@%_12_0 Int )
(declare-var main@%_13_0 Int )
(declare-var main@%_14_0 Bool )
(declare-var main@entry_0 Bool )
(declare-var main@entry.split_0 Bool )
(rule (verifier.error false false false))
(rule (verifier.error false true true))
(rule (verifier.error true false true))
(rule (verifier.error true true true))
(rule (main@entry @nd_0))
(rule (=> (and (main@entry @nd_0)
         true
         (> main@%x.i_0 0)
         (> main@%y.i_0 0)
         (distinct main@%x.i_0 main@%y.i_0) ; modified
         (= main@%_1_0 @nd_0)
         (= main@%_3_0 (store main@%_0_0 main@%x.i_0 main@%_2_0))
         (= main@%_4_0 @nd_0)
         (= main@%_6_0 (store main@%_3_0 main@%y.i_0 main@%_5_0))
         (= main@%_7_0 (>= main@%_2_0 main@%_5_0))
         (= main@%x.y.i_0 (ite main@%_7_0 main@%x.i_0 main@%y.i_0))
         (= main@%_8_0 (select main@%_6_0 main@%x.y.i_0))
         (= main@%_9_0 (+ main@%_8_0 1))
         (= main@%_10_0 (store main@%_6_0 main@%x.y.i_0 main@%_9_0))
         (= main@%_11_0 (select main@%_10_0 main@%x.i_0))
         (= main@%_12_0 (select main@%_10_0 main@%y.i_0))
         (= main@%_13_0 (+ main@%_12_0 1))
         (= main@%_14_0 (= main@%_11_0 main@%_13_0))
         main@%_14_0
         (=> main@entry.split_0 (and main@entry.split_0 main@entry_0))
         main@entry.split_0)
    main@entry.split))
(query main@entry.split)

